97
30
0 31 32 33 35 36 41 42 44 45 48 50 51 52 53 54 56 57 59 61 65 67 68 69 70 71 74 81 82 84 86 88 92 94 95 96
1 30 33 41 45 47 48 50 51 52 55 56 57 60 61 65 67 69 70 71 72 74 76 78 82 84 88 90 91 92 93 95 96
2 30 31 32 33 36 45 46 48 50 51 52 53 54 55 56 61 65 67 70 71 73 74 75 79 82 83 86 88 90 94 95
3 33 36 47 48 49 50 52 54 56 58 59 65 67 68 70 73 74 75 78 79 80 81 82 84 85 86 88 90 92 93 94
4 31 33 36 42 43 48 49 51 52 53 56 57 58 59 61 62 65 67 68 70 73 79 81 87 88 90 92 93
5 30 32 35 36 46 47 48 50 51 52 54 56 58 59 61 65 67 68 69 70 73 74 75 78 79 80 81 82 86 87 88 90 92 93 95 96
6 31 32 33 38 41 44 45 48 50 51 52 54 56 57 59 65 67 68 69 71 74 75 78 79 82 83 84 87 88 90 92 93 94 95 96
7 31 33 36 40 44 48 50 51 54 56 58 59 61 63 67 70 71 73 74 75 79 82 84 90 92 93 94
8 30 32 34 35 36 43 44 46 47 48 50 51 52 54 55 56 59 61 63 65 67 68 69 70 74 75 79 80 82 86 88 90 92 95 96
9 31 32 33 41 44 46 51 54 55 56 58 59 61 65 68 70 73 74 76 78 79 81 82 86 88 92 94 95
10 32 35 36 38 41 42 44 45 47 48 53 54 56 58 61 63 65 67 70 71 75 78 79 81 82 85 86 88 90 92 93
11 32 33 36 41 46 47 50 51 52 53 54 55 56 57 65 68 74 75 77 78 79 82 84 86 87 93 95
12 30 36 41 42 43 48 49 50 52 56 67 68 69 72 74 79 80 81 82 84 86 87 88 90 92 96
13 30 33 35 36 42 43 44 45 49 50 51 54 57 59 61 68 69 70 71 74 75 80 82 83 86 88 92 93 95
14 31 33 35 36 40 42 45 49 54 56 57 58 59 60 61 64 65 67 68 69 70 71 75 78 85 88 92 94 96
15 30 32 34 35 36 38 40 41 45 53 55 57 59 69 71 73 77 81 83 86 87 92 95
16 31 34 36 40 43 44 46 47 48 50 51 52 53 56 57 68 71 81 83 85 86 88 90 92 94 95
17 30 31 40 41 42 43 45 48 50 57 58 59 61 67 69 70 73 77 78 84 86 90 93 95
18 30 31 32 36 41 45 47 50 53 54 59 65 69 70 71 72 75 78 79 80 81 82 92 94 96
19 30 37 41 42 46 47 48 52 53 54 56 68 70 71 72 77 84 90 95
20 30 33 44 46 51 52 55 66 67 71 78 81 82 84 85 86 94
21 30 31 33 36 50 54 55 57 61 65 67 69 71 72 75 78 86 87
22 34 36 38 43 45 48 55 58 59 67 70 72 80 87 88 90 94
23 32 39 43 44 45 49 52 62 74 96
24 31 35 46 47 50 51 54 73 82 85 86 93
25 37 40 45 48 53 56 67 71 76 79 80 83 84 86 88
26 52 54 60 73 80 82 93 96
27 46 52 57 58 77 82 83
28 47 51 83 89 91
29 34 46
